(set-option :produce-models true)
(set-logic QF_LRA)
(set-info :notes | Strip-packing problem.|)
(declare-fun x0 () Real)
(declare-fun y0 () Real)
(declare-fun x1 () Real)
(declare-fun y1 () Real)
(declare-fun x2 () Real)
(declare-fun y2 () Real)
(declare-fun x3 () Real)
(declare-fun y3 () Real)
(declare-fun x4 () Real)
(declare-fun y4 () Real)
(declare-fun x5 () Real)
(declare-fun y5 () Real)
(declare-fun x6 () Real)
(declare-fun y6 () Real)
(declare-fun x7 () Real)
(declare-fun y7 () Real)
(declare-fun x8 () Real)
(declare-fun y8 () Real)
(declare-fun x9 () Real)
(declare-fun y9 () Real)
(declare-fun x10 () Real)
(declare-fun y10 () Real)
(declare-fun x11 () Real)
(declare-fun y11 () Real)
(declare-fun x12 () Real)
(declare-fun y12 () Real)
(declare-fun x13 () Real)
(declare-fun y13 () Real)
(declare-fun x14 () Real)
(declare-fun y14 () Real)
(declare-fun z () Real)
(declare-fun c () Real)
(assert (and (= c z) (and (>= x0 0) 
(and (>= y0 0) 
(and (>= x1 0) 
(and (>= y1 0) 
(and (>= x2 0) 
(and (>= y2 0) 
(and (>= x3 0) 
(and (>= y3 0) 
(and (>= x4 0) 
(and (>= y4 0) 
(and (>= x5 0) 
(and (>= y5 0) 
(and (>= x6 0) 
(and (>= y6 0) 
(and (>= x7 0) 
(and (>= y7 0) 
(and (>= x8 0) 
(and (>= y8 0) 
(and (>= x9 0) 
(and (>= y9 0) 
(and (>= x10 0) 
(and (>= y10 0) 
(and (>= x11 0) 
(and (>= y11 0) 
(and (>= x12 0) 
(and (>= y12 0) 
(and (>= x13 0) 
(and (>= y13 0) 
(and (>= x14 0) 
(and (>= y14 0) 
(and (>= z 0) 
(and (>= c 0) 
(and (<= (+ x0 0.5758972982) z) 
(and (<= 0.9919941053 y0) 
(and (<= y0 1.0) 
(and (<= x0 (- 5.487033398 0.5758972982)) 
(and (>= x0 0) 
(and (<= (+ x1 0.3206419566) z) 
(and (<= 0.975290603 y1) 
(and (<= y1 1.0) 
(and (<= x1 (- 5.487033398 0.3206419566)) 
(and (>= x1 0) 
(and (<= (+ x2 0.2684518014) z) 
(and (<= 0.9589564131 y2) 
(and (<= y2 1.0) 
(and (<= x2 (- 5.487033398 0.2684518014)) 
(and (>= x2 0) 
(and (<= (+ x3 0.7271698835) z) 
(and (<= 0.9257201363 y3) 
(and (<= y3 1.0) 
(and (<= x3 (- 5.487033398 0.7271698835)) 
(and (>= x3 0) 
(and (<= (+ x4 0.7963295526) z) 
(and (<= 0.9073065782 y4) 
(and (<= y4 1.0) 
(and (<= x4 (- 5.487033398 0.7963295526)) 
(and (>= x4 0) 
(and (<= (+ x5 0.7871869644) z) 
(and (<= 0.8971808652 y5) 
(and (<= y5 1.0) 
(and (<= x5 (- 5.487033398 0.7871869644)) 
(and (>= x5 0) 
(and (<= (+ x6 0.1909047506) z) 
(and (<= 0.8685440604 y6) 
(and (<= y6 1.0) 
(and (<= x6 (- 5.487033398 0.1909047506)) 
(and (>= x6 0) 
(and (<= (+ x7 0.2303013315) z) 
(and (<= 0.8193486627 y7) 
(and (<= y7 1.0) 
(and (<= x7 (- 5.487033398 0.2303013315)) 
(and (>= x7 0) 
(and (<= (+ x8 0.1820809297) z) 
(and (<= 0.7352727466 y8) 
(and (<= y8 1.0) 
(and (<= x8 (- 5.487033398 0.1820809297)) 
(and (>= x8 0) 
(and (<= (+ x9 0.3655907893) z) 
(and (<= 0.6451530546 y9) 
(and (<= y9 1.0) 
(and (<= x9 (- 5.487033398 0.3655907893)) 
(and (>= x9 0) 
(and (<= (+ x10 0.1532229827) z) 
(and (<= 0.6273435618 y10) 
(and (<= y10 1.0) 
(and (<= x10 (- 5.487033398 0.1532229827)) 
(and (>= x10 0) 
(and (<= (+ x11 0.3405199977) z) 
(and (<= 0.4138705782 y11) 
(and (<= y11 1.0) 
(and (<= x11 (- 5.487033398 0.3405199977)) 
(and (>= x11 0) 
(and (<= (+ x12 0.5487351598) z) 
(and (<= 0.111630671 y12) 
(and (<= y12 1.0) 
(and (<= x12 (- 5.487033398 0.5487351598)) 
(and (>= x12 0) 
(and (<= (+ x13 0.4951905214) z) 
(and (<= 0.0726572963 y13) 
(and (<= y13 1.0) 
(and (<= x13 (- 5.487033398 0.4951905214)) 
(and (>= x13 0) 
(and (<= (+ x14 0.3209420023) z) 
(and (<= 0.0480608717 y14) 
(and (<= y14 1.0) 
(and (<= x14 (- 5.487033398 0.3209420023)) 
(and (>= x14 0) 
(and (<= c 5.487033398) 
(and (or (<= (+ x0 0.5758972982) x1) (or (<= (+ x1 0.3206419566) x0) (or (>= (- y0 0.9919941053) y1) (or (>= (- y1 0.975290603) y0))))) 
(and (or (<= (+ x0 0.5758972982) x2) (or (<= (+ x2 0.2684518014) x0) (or (>= (- y0 0.9919941053) y2) (or (>= (- y2 0.9589564131) y0))))) 
(and (or (<= (+ x0 0.5758972982) x3) (or (<= (+ x3 0.7271698835) x0) (or (>= (- y0 0.9919941053) y3) (or (>= (- y3 0.9257201363) y0))))) 
(and (or (<= (+ x0 0.5758972982) x4) (or (<= (+ x4 0.7963295526) x0) (or (>= (- y0 0.9919941053) y4) (or (>= (- y4 0.9073065782) y0))))) 
(and (or (<= (+ x0 0.5758972982) x5) (or (<= (+ x5 0.7871869644) x0) (or (>= (- y0 0.9919941053) y5) (or (>= (- y5 0.8971808652) y0))))) 
(and (or (<= (+ x0 0.5758972982) x6) (or (<= (+ x6 0.1909047506) x0) (or (>= (- y0 0.9919941053) y6) (or (>= (- y6 0.8685440604) y0))))) 
(and (or (<= (+ x0 0.5758972982) x7) (or (<= (+ x7 0.2303013315) x0) (or (>= (- y0 0.9919941053) y7) (or (>= (- y7 0.8193486627) y0))))) 
(and (or (<= (+ x0 0.5758972982) x8) (or (<= (+ x8 0.1820809297) x0) (or (>= (- y0 0.9919941053) y8) (or (>= (- y8 0.7352727466) y0))))) 
(and (or (<= (+ x0 0.5758972982) x9) (or (<= (+ x9 0.3655907893) x0) (or (>= (- y0 0.9919941053) y9) (or (>= (- y9 0.6451530546) y0))))) 
(and (or (<= (+ x0 0.5758972982) x10) (or (<= (+ x10 0.1532229827) x0) (or (>= (- y0 0.9919941053) y10) (or (>= (- y10 0.6273435618) y0))))) 
(and (or (<= (+ x0 0.5758972982) x11) (or (<= (+ x11 0.3405199977) x0) (or (>= (- y0 0.9919941053) y11) (or (>= (- y11 0.4138705782) y0))))) 
(and (or (<= (+ x0 0.5758972982) x12) (or (<= (+ x12 0.5487351598) x0) (or (>= (- y0 0.9919941053) y12) (or (>= (- y12 0.111630671) y0))))) 
(and (or (<= (+ x0 0.5758972982) x13) (or (<= (+ x13 0.4951905214) x0) (or (>= (- y0 0.9919941053) y13) (or (>= (- y13 0.0726572963) y0))))) 
(and (or (<= (+ x0 0.5758972982) x14) (or (<= (+ x14 0.3209420023) x0) (or (>= (- y0 0.9919941053) y14) (or (>= (- y14 0.0480608717) y0))))) 
(and (or (<= (+ x1 0.3206419566) x2) (or (<= (+ x2 0.2684518014) x1) (or (>= (- y1 0.975290603) y2) (or (>= (- y2 0.9589564131) y1))))) 
(and (or (<= (+ x1 0.3206419566) x3) (or (<= (+ x3 0.7271698835) x1) (or (>= (- y1 0.975290603) y3) (or (>= (- y3 0.9257201363) y1))))) 
(and (or (<= (+ x1 0.3206419566) x4) (or (<= (+ x4 0.7963295526) x1) (or (>= (- y1 0.975290603) y4) (or (>= (- y4 0.9073065782) y1))))) 
(and (or (<= (+ x1 0.3206419566) x5) (or (<= (+ x5 0.7871869644) x1) (or (>= (- y1 0.975290603) y5) (or (>= (- y5 0.8971808652) y1))))) 
(and (or (<= (+ x1 0.3206419566) x6) (or (<= (+ x6 0.1909047506) x1) (or (>= (- y1 0.975290603) y6) (or (>= (- y6 0.8685440604) y1))))) 
(and (or (<= (+ x1 0.3206419566) x7) (or (<= (+ x7 0.2303013315) x1) (or (>= (- y1 0.975290603) y7) (or (>= (- y7 0.8193486627) y1))))) 
(and (or (<= (+ x1 0.3206419566) x8) (or (<= (+ x8 0.1820809297) x1) (or (>= (- y1 0.975290603) y8) (or (>= (- y8 0.7352727466) y1))))) 
(and (or (<= (+ x1 0.3206419566) x9) (or (<= (+ x9 0.3655907893) x1) (or (>= (- y1 0.975290603) y9) (or (>= (- y9 0.6451530546) y1))))) 
(and (or (<= (+ x1 0.3206419566) x10) (or (<= (+ x10 0.1532229827) x1) (or (>= (- y1 0.975290603) y10) (or (>= (- y10 0.6273435618) y1))))) 
(and (or (<= (+ x1 0.3206419566) x11) (or (<= (+ x11 0.3405199977) x1) (or (>= (- y1 0.975290603) y11) (or (>= (- y11 0.4138705782) y1))))) 
(and (or (<= (+ x1 0.3206419566) x12) (or (<= (+ x12 0.5487351598) x1) (or (>= (- y1 0.975290603) y12) (or (>= (- y12 0.111630671) y1))))) 
(and (or (<= (+ x1 0.3206419566) x13) (or (<= (+ x13 0.4951905214) x1) (or (>= (- y1 0.975290603) y13) (or (>= (- y13 0.0726572963) y1))))) 
(and (or (<= (+ x1 0.3206419566) x14) (or (<= (+ x14 0.3209420023) x1) (or (>= (- y1 0.975290603) y14) (or (>= (- y14 0.0480608717) y1))))) 
(and (or (<= (+ x2 0.2684518014) x3) (or (<= (+ x3 0.7271698835) x2) (or (>= (- y2 0.9589564131) y3) (or (>= (- y3 0.9257201363) y2))))) 
(and (or (<= (+ x2 0.2684518014) x4) (or (<= (+ x4 0.7963295526) x2) (or (>= (- y2 0.9589564131) y4) (or (>= (- y4 0.9073065782) y2))))) 
(and (or (<= (+ x2 0.2684518014) x5) (or (<= (+ x5 0.7871869644) x2) (or (>= (- y2 0.9589564131) y5) (or (>= (- y5 0.8971808652) y2))))) 
(and (or (<= (+ x2 0.2684518014) x6) (or (<= (+ x6 0.1909047506) x2) (or (>= (- y2 0.9589564131) y6) (or (>= (- y6 0.8685440604) y2))))) 
(and (or (<= (+ x2 0.2684518014) x7) (or (<= (+ x7 0.2303013315) x2) (or (>= (- y2 0.9589564131) y7) (or (>= (- y7 0.8193486627) y2))))) 
(and (or (<= (+ x2 0.2684518014) x8) (or (<= (+ x8 0.1820809297) x2) (or (>= (- y2 0.9589564131) y8) (or (>= (- y8 0.7352727466) y2))))) 
(and (or (<= (+ x2 0.2684518014) x9) (or (<= (+ x9 0.3655907893) x2) (or (>= (- y2 0.9589564131) y9) (or (>= (- y9 0.6451530546) y2))))) 
(and (or (<= (+ x2 0.2684518014) x10) (or (<= (+ x10 0.1532229827) x2) (or (>= (- y2 0.9589564131) y10) (or (>= (- y10 0.6273435618) y2))))) 
(and (or (<= (+ x2 0.2684518014) x11) (or (<= (+ x11 0.3405199977) x2) (or (>= (- y2 0.9589564131) y11) (or (>= (- y11 0.4138705782) y2))))) 
(and (or (<= (+ x2 0.2684518014) x12) (or (<= (+ x12 0.5487351598) x2) (or (>= (- y2 0.9589564131) y12) (or (>= (- y12 0.111630671) y2))))) 
(and (or (<= (+ x2 0.2684518014) x13) (or (<= (+ x13 0.4951905214) x2) (or (>= (- y2 0.9589564131) y13) (or (>= (- y13 0.0726572963) y2))))) 
(and (or (<= (+ x2 0.2684518014) x14) (or (<= (+ x14 0.3209420023) x2) (or (>= (- y2 0.9589564131) y14) (or (>= (- y14 0.0480608717) y2))))) 
(and (or (<= (+ x3 0.7271698835) x4) (or (<= (+ x4 0.7963295526) x3) (or (>= (- y3 0.9257201363) y4) (or (>= (- y4 0.9073065782) y3))))) 
(and (or (<= (+ x3 0.7271698835) x5) (or (<= (+ x5 0.7871869644) x3) (or (>= (- y3 0.9257201363) y5) (or (>= (- y5 0.8971808652) y3))))) 
(and (or (<= (+ x3 0.7271698835) x6) (or (<= (+ x6 0.1909047506) x3) (or (>= (- y3 0.9257201363) y6) (or (>= (- y6 0.8685440604) y3))))) 
(and (or (<= (+ x3 0.7271698835) x7) (or (<= (+ x7 0.2303013315) x3) (or (>= (- y3 0.9257201363) y7) (or (>= (- y7 0.8193486627) y3))))) 
(and (or (<= (+ x3 0.7271698835) x8) (or (<= (+ x8 0.1820809297) x3) (or (>= (- y3 0.9257201363) y8) (or (>= (- y8 0.7352727466) y3))))) 
(and (or (<= (+ x3 0.7271698835) x9) (or (<= (+ x9 0.3655907893) x3) (or (>= (- y3 0.9257201363) y9) (or (>= (- y9 0.6451530546) y3))))) 
(and (or (<= (+ x3 0.7271698835) x10) (or (<= (+ x10 0.1532229827) x3) (or (>= (- y3 0.9257201363) y10) (or (>= (- y10 0.6273435618) y3))))) 
(and (or (<= (+ x3 0.7271698835) x11) (or (<= (+ x11 0.3405199977) x3) (or (>= (- y3 0.9257201363) y11) (or (>= (- y11 0.4138705782) y3))))) 
(and (or (<= (+ x3 0.7271698835) x12) (or (<= (+ x12 0.5487351598) x3) (or (>= (- y3 0.9257201363) y12) (or (>= (- y12 0.111630671) y3))))) 
(and (or (<= (+ x3 0.7271698835) x13) (or (<= (+ x13 0.4951905214) x3) (or (>= (- y3 0.9257201363) y13) (or (>= (- y13 0.0726572963) y3))))) 
(and (or (<= (+ x3 0.7271698835) x14) (or (<= (+ x14 0.3209420023) x3) (or (>= (- y3 0.9257201363) y14) (or (>= (- y14 0.0480608717) y3))))) 
(and (or (<= (+ x4 0.7963295526) x5) (or (<= (+ x5 0.7871869644) x4) (or (>= (- y4 0.9073065782) y5) (or (>= (- y5 0.8971808652) y4))))) 
(and (or (<= (+ x4 0.7963295526) x6) (or (<= (+ x6 0.1909047506) x4) (or (>= (- y4 0.9073065782) y6) (or (>= (- y6 0.8685440604) y4))))) 
(and (or (<= (+ x4 0.7963295526) x7) (or (<= (+ x7 0.2303013315) x4) (or (>= (- y4 0.9073065782) y7) (or (>= (- y7 0.8193486627) y4))))) 
(and (or (<= (+ x4 0.7963295526) x8) (or (<= (+ x8 0.1820809297) x4) (or (>= (- y4 0.9073065782) y8) (or (>= (- y8 0.7352727466) y4))))) 
(and (or (<= (+ x4 0.7963295526) x9) (or (<= (+ x9 0.3655907893) x4) (or (>= (- y4 0.9073065782) y9) (or (>= (- y9 0.6451530546) y4))))) 
(and (or (<= (+ x4 0.7963295526) x10) (or (<= (+ x10 0.1532229827) x4) (or (>= (- y4 0.9073065782) y10) (or (>= (- y10 0.6273435618) y4))))) 
(and (or (<= (+ x4 0.7963295526) x11) (or (<= (+ x11 0.3405199977) x4) (or (>= (- y4 0.9073065782) y11) (or (>= (- y11 0.4138705782) y4))))) 
(and (or (<= (+ x4 0.7963295526) x12) (or (<= (+ x12 0.5487351598) x4) (or (>= (- y4 0.9073065782) y12) (or (>= (- y12 0.111630671) y4))))) 
(and (or (<= (+ x4 0.7963295526) x13) (or (<= (+ x13 0.4951905214) x4) (or (>= (- y4 0.9073065782) y13) (or (>= (- y13 0.0726572963) y4))))) 
(and (or (<= (+ x4 0.7963295526) x14) (or (<= (+ x14 0.3209420023) x4) (or (>= (- y4 0.9073065782) y14) (or (>= (- y14 0.0480608717) y4))))) 
(and (or (<= (+ x5 0.7871869644) x6) (or (<= (+ x6 0.1909047506) x5) (or (>= (- y5 0.8971808652) y6) (or (>= (- y6 0.8685440604) y5))))) 
(and (or (<= (+ x5 0.7871869644) x7) (or (<= (+ x7 0.2303013315) x5) (or (>= (- y5 0.8971808652) y7) (or (>= (- y7 0.8193486627) y5))))) 
(and (or (<= (+ x5 0.7871869644) x8) (or (<= (+ x8 0.1820809297) x5) (or (>= (- y5 0.8971808652) y8) (or (>= (- y8 0.7352727466) y5))))) 
(and (or (<= (+ x5 0.7871869644) x9) (or (<= (+ x9 0.3655907893) x5) (or (>= (- y5 0.8971808652) y9) (or (>= (- y9 0.6451530546) y5))))) 
(and (or (<= (+ x5 0.7871869644) x10) (or (<= (+ x10 0.1532229827) x5) (or (>= (- y5 0.8971808652) y10) (or (>= (- y10 0.6273435618) y5))))) 
(and (or (<= (+ x5 0.7871869644) x11) (or (<= (+ x11 0.3405199977) x5) (or (>= (- y5 0.8971808652) y11) (or (>= (- y11 0.4138705782) y5))))) 
(and (or (<= (+ x5 0.7871869644) x12) (or (<= (+ x12 0.5487351598) x5) (or (>= (- y5 0.8971808652) y12) (or (>= (- y12 0.111630671) y5))))) 
(and (or (<= (+ x5 0.7871869644) x13) (or (<= (+ x13 0.4951905214) x5) (or (>= (- y5 0.8971808652) y13) (or (>= (- y13 0.0726572963) y5))))) 
(and (or (<= (+ x5 0.7871869644) x14) (or (<= (+ x14 0.3209420023) x5) (or (>= (- y5 0.8971808652) y14) (or (>= (- y14 0.0480608717) y5))))) 
(and (or (<= (+ x6 0.1909047506) x7) (or (<= (+ x7 0.2303013315) x6) (or (>= (- y6 0.8685440604) y7) (or (>= (- y7 0.8193486627) y6))))) 
(and (or (<= (+ x6 0.1909047506) x8) (or (<= (+ x8 0.1820809297) x6) (or (>= (- y6 0.8685440604) y8) (or (>= (- y8 0.7352727466) y6))))) 
(and (or (<= (+ x6 0.1909047506) x9) (or (<= (+ x9 0.3655907893) x6) (or (>= (- y6 0.8685440604) y9) (or (>= (- y9 0.6451530546) y6))))) 
(and (or (<= (+ x6 0.1909047506) x10) (or (<= (+ x10 0.1532229827) x6) (or (>= (- y6 0.8685440604) y10) (or (>= (- y10 0.6273435618) y6))))) 
(and (or (<= (+ x6 0.1909047506) x11) (or (<= (+ x11 0.3405199977) x6) (or (>= (- y6 0.8685440604) y11) (or (>= (- y11 0.4138705782) y6))))) 
(and (or (<= (+ x6 0.1909047506) x12) (or (<= (+ x12 0.5487351598) x6) (or (>= (- y6 0.8685440604) y12) (or (>= (- y12 0.111630671) y6))))) 
(and (or (<= (+ x6 0.1909047506) x13) (or (<= (+ x13 0.4951905214) x6) (or (>= (- y6 0.8685440604) y13) (or (>= (- y13 0.0726572963) y6))))) 
(and (or (<= (+ x6 0.1909047506) x14) (or (<= (+ x14 0.3209420023) x6) (or (>= (- y6 0.8685440604) y14) (or (>= (- y14 0.0480608717) y6))))) 
(and (or (<= (+ x7 0.2303013315) x8) (or (<= (+ x8 0.1820809297) x7) (or (>= (- y7 0.8193486627) y8) (or (>= (- y8 0.7352727466) y7))))) 
(and (or (<= (+ x7 0.2303013315) x9) (or (<= (+ x9 0.3655907893) x7) (or (>= (- y7 0.8193486627) y9) (or (>= (- y9 0.6451530546) y7))))) 
(and (or (<= (+ x7 0.2303013315) x10) (or (<= (+ x10 0.1532229827) x7) (or (>= (- y7 0.8193486627) y10) (or (>= (- y10 0.6273435618) y7))))) 
(and (or (<= (+ x7 0.2303013315) x11) (or (<= (+ x11 0.3405199977) x7) (or (>= (- y7 0.8193486627) y11) (or (>= (- y11 0.4138705782) y7))))) 
(and (or (<= (+ x7 0.2303013315) x12) (or (<= (+ x12 0.5487351598) x7) (or (>= (- y7 0.8193486627) y12) (or (>= (- y12 0.111630671) y7))))) 
(and (or (<= (+ x7 0.2303013315) x13) (or (<= (+ x13 0.4951905214) x7) (or (>= (- y7 0.8193486627) y13) (or (>= (- y13 0.0726572963) y7))))) 
(and (or (<= (+ x7 0.2303013315) x14) (or (<= (+ x14 0.3209420023) x7) (or (>= (- y7 0.8193486627) y14) (or (>= (- y14 0.0480608717) y7))))) 
(and (or (<= (+ x8 0.1820809297) x9) (or (<= (+ x9 0.3655907893) x8) (or (>= (- y8 0.7352727466) y9) (or (>= (- y9 0.6451530546) y8))))) 
(and (or (<= (+ x8 0.1820809297) x10) (or (<= (+ x10 0.1532229827) x8) (or (>= (- y8 0.7352727466) y10) (or (>= (- y10 0.6273435618) y8))))) 
(and (or (<= (+ x8 0.1820809297) x11) (or (<= (+ x11 0.3405199977) x8) (or (>= (- y8 0.7352727466) y11) (or (>= (- y11 0.4138705782) y8))))) 
(and (or (<= (+ x8 0.1820809297) x12) (or (<= (+ x12 0.5487351598) x8) (or (>= (- y8 0.7352727466) y12) (or (>= (- y12 0.111630671) y8))))) 
(and (or (<= (+ x8 0.1820809297) x13) (or (<= (+ x13 0.4951905214) x8) (or (>= (- y8 0.7352727466) y13) (or (>= (- y13 0.0726572963) y8))))) 
(and (or (<= (+ x8 0.1820809297) x14) (or (<= (+ x14 0.3209420023) x8) (or (>= (- y8 0.7352727466) y14) (or (>= (- y14 0.0480608717) y8))))) 
(and (or (<= (+ x9 0.3655907893) x10) (or (<= (+ x10 0.1532229827) x9) (or (>= (- y9 0.6451530546) y10) (or (>= (- y10 0.6273435618) y9))))) 
(and (or (<= (+ x9 0.3655907893) x11) (or (<= (+ x11 0.3405199977) x9) (or (>= (- y9 0.6451530546) y11) (or (>= (- y11 0.4138705782) y9))))) 
(and (or (<= (+ x9 0.3655907893) x12) (or (<= (+ x12 0.5487351598) x9) (or (>= (- y9 0.6451530546) y12) (or (>= (- y12 0.111630671) y9))))) 
(and (or (<= (+ x9 0.3655907893) x13) (or (<= (+ x13 0.4951905214) x9) (or (>= (- y9 0.6451530546) y13) (or (>= (- y13 0.0726572963) y9))))) 
(and (or (<= (+ x9 0.3655907893) x14) (or (<= (+ x14 0.3209420023) x9) (or (>= (- y9 0.6451530546) y14) (or (>= (- y14 0.0480608717) y9))))) 
(and (or (<= (+ x10 0.1532229827) x11) (or (<= (+ x11 0.3405199977) x10) (or (>= (- y10 0.6273435618) y11) (or (>= (- y11 0.4138705782) y10))))) 
(and (or (<= (+ x10 0.1532229827) x12) (or (<= (+ x12 0.5487351598) x10) (or (>= (- y10 0.6273435618) y12) (or (>= (- y12 0.111630671) y10))))) 
(and (or (<= (+ x10 0.1532229827) x13) (or (<= (+ x13 0.4951905214) x10) (or (>= (- y10 0.6273435618) y13) (or (>= (- y13 0.0726572963) y10))))) 
(and (or (<= (+ x10 0.1532229827) x14) (or (<= (+ x14 0.3209420023) x10) (or (>= (- y10 0.6273435618) y14) (or (>= (- y14 0.0480608717) y10))))) 
(and (or (<= (+ x11 0.3405199977) x12) (or (<= (+ x12 0.5487351598) x11) (or (>= (- y11 0.4138705782) y12) (or (>= (- y12 0.111630671) y11))))) 
(and (or (<= (+ x11 0.3405199977) x13) (or (<= (+ x13 0.4951905214) x11) (or (>= (- y11 0.4138705782) y13) (or (>= (- y13 0.0726572963) y11))))) 
(and (or (<= (+ x11 0.3405199977) x14) (or (<= (+ x14 0.3209420023) x11) (or (>= (- y11 0.4138705782) y14) (or (>= (- y14 0.0480608717) y11))))) 
(and (or (<= (+ x12 0.5487351598) x13) (or (<= (+ x13 0.4951905214) x12) (or (>= (- y12 0.111630671) y13) (or (>= (- y13 0.0726572963) y12))))) 
(and (or (<= (+ x12 0.5487351598) x14) (or (<= (+ x14 0.3209420023) x12) (or (>= (- y12 0.111630671) y14) (or (>= (- y14 0.0480608717) y12))))) 
(and (or (<= (+ x13 0.4951905214) x14) (or (<= (+ x14 0.3209420023) x13) (or (>= (- y13 0.0726572963) y14) (or (>= (- y14 0.0480608717) y13))))) )))))))))))))))))))))))))))))))))))))))))))))))))))))))))))))))))))))))))))))))))))))))))))))))))))))))))))))))))))))))))))))))))))))))))))))))))))))))))))))))))))))))))))))))))))))))))))))))))))))))))))))))))))))))
(minimize c)
(check-sat)
(get-objectives)
(exit)
